(set-option :count-models true)
(set-logic QF_BV)
(set-option :print-clauses-file "./counts.cnf")(set-info :smt-lib-version 2.0)
(declare-fun rho_1 () (_ BitVec 32))
(declare-fun rho_2 () (_ BitVec 32))
(declare-fun phi_1 () Bool)
(declare-fun phi_2 () Bool)
(declare-fun districtid () (_ BitVec 32))
(declare-fun warehouseid () (_ BitVec 32))
(declare-fun customerid () (_ BitVec 32))
(declare-fun districtidGV () (_ BitVec 32))
(declare-fun warehouseidGV () (_ BitVec 32))
(declare-fun customeridGV () (_ BitVec 32))
(assert (= rho_1 (bvadd (! districtid :named v1) (bvadd (bvmul (! warehouseid :named v2) #b00000000000000000000000001100100) (bvmul (! customerid :named v3) #b00000000000000000010011100010000)))))
(assert (= rho_2 (bvadd districtidGV (bvadd (bvmul warehouseidGV #b00000000000000000000000001100100) (bvmul customeridGV #b00000000000000000010011100010000)))))
(assert (= phi_1 (and (and (bvult districtid #b00000000000000000000000000001010)(bvult warehouseid #b00000000000000000000000000000001)(bvult customerid #b00000000000000000000101110111000)))))
(assert (= phi_2 (and (and (bvult districtidGV #b00000000000000000000000000001010)(bvult warehouseidGV #b00000000000000000000000000000001)(bvult customeridGV #b00000000000000000000101110111000)))))
(assert (and (= rho_1 rho_2) (and phi_1 phi_2)))
(count-models v1 v2 v3)
(exit)